&CONTROL
                 calculation = 'relax' ,
                restart_mode = 'from_scratch' ,
                  pseudo_dir = '.',
                      prefix = 'h2' ,
                       nstep = 500,
/
&SYSTEM
                       ibrav = 0,
                   celldm(1) = 20.0,
                         nat = 2,
                        ntyp = 1,
                     ecutwfc = 24.00 ,
                     ecutrho = 96.00 ,
/
&ELECTRONS
            electron_maxstep = 999,
                    conv_thr = 1.0D-8,
                 mixing_beta = 0.7,
             diagonalization = 'david',
/
&IONS
                ion_dynamics = 'bfgs' ,
/
CELL_PARAMETERS
     1.00000  0.00000  0.00000
     0.00000  1.00000  0.00000
     0.00000  0.00000  1.00000
ATOMIC_SPECIES
    H   1.0007   H.UPF 
ATOMIC_POSITIONS angstrom
H -0.5 0 0
H 0.5 0 0     
K_POINTS gamma
